\ENCODING=ISO-8859-1
\Problem name: SacADos

Maximize
 obj: 6 x(1) + 10 x(2) + 5 x(3) + 4 x(4) + 3 x(5) + 2 x(6) + 2 x(7)
Subject To
 c1: 56 x(1) + 62 x(2) + 32 x(3) + 48 x(4) + 25 x(5) + 3 x(6) + 3 x(7) <= 100
Bounds
 0 <= x(1) <= 1
 0 <= x(2) <= 1
 0 <= x(3) <= 1
 0 <= x(4) <= 1
 0 <= x(5) <= 1
 0 <= x(6) <= 1
 0 <= x(7) <= 1
Binaries
 x(1)  x(2)  x(3)  x(4)  x(5)  x(6)  x(7) 
End
